% seed = 0

mint = 30;
% maxt = 88;

nActs = 32;
dur = [0,5,4,2,3,3,7,1,3,2,3,3,1,3,3,2,3,3,3,4,2,1,1,2,3,3,1,6,4,5,2,0];

nSkills = 12;
sreq = [| 0,0,0,0,0,0,0,0,0,0,0,0,
	| 0,0,0,0,1,0,0,0,0,1,0,0,
	| 0,0,0,0,0,0,1,0,1,0,0,1,
	| 0,0,1,0,0,0,0,0,0,0,0,0,
	| 0,0,0,0,0,0,0,1,1,0,0,0,
	| 0,0,1,0,1,0,0,0,0,0,0,0,
	| 0,0,0,0,0,0,0,0,0,1,0,0,
	| 1,0,0,0,0,0,0,1,0,0,0,0,
	| 0,0,0,0,0,0,0,0,0,1,0,0,
	| 0,0,0,1,0,0,0,0,0,1,0,0,
	| 0,0,0,0,0,0,0,0,1,0,0,0,
	| 0,0,0,0,0,0,1,0,0,0,0,0,
	| 0,0,0,0,0,0,0,1,0,0,0,0,
	| 0,0,0,0,0,0,0,1,0,0,0,0,
	| 0,0,0,0,1,0,0,0,0,0,0,0,
	| 0,0,0,0,0,0,0,1,1,0,0,0,
	| 0,0,1,0,0,0,0,0,0,0,1,0,
	| 0,0,0,0,0,0,0,0,1,0,0,0,
	| 1,0,0,0,0,1,0,0,0,0,0,0,
	| 0,0,0,0,0,0,0,0,0,0,1,0,
	| 0,1,0,0,0,0,0,0,0,0,1,0,
	| 0,0,0,0,0,0,0,0,1,1,0,0,
	| 0,0,0,0,0,0,0,0,1,0,0,0,
	| 0,0,0,0,0,0,0,0,1,0,0,0,
	| 0,0,0,0,0,0,0,1,0,0,1,0,
	| 0,1,0,0,0,0,0,1,0,0,0,0,
	| 0,0,0,0,0,0,1,1,0,0,0,0,
	| 0,0,0,0,0,0,0,1,0,1,0,0,
	| 0,0,2,0,0,0,0,0,0,0,0,0,
	| 0,0,1,0,1,0,0,0,0,0,0,0,
	| 0,0,1,0,0,0,0,0,0,0,0,0,
	| 0,0,0,0,0,0,0,0,0,0,0,0, |];

% SumOfsreq = 48;

nResources = 7;
mastery = [| false,false,true,false,false,false,false,false,true,false,false,false,
	| false,false,false,false,false,false,false,true,true,false,false,false,
	| false,false,false,true,true,true,true,true,true,false,false,false,
	| false,false,false,false,false,false,false,false,false,true,true,true,
	| false,false,false,false,false,false,true,true,true,false,true,true,
	| true,true,true,false,false,false,false,false,false,false,false,false,
	| false,false,false,false,false,true,false,false,false,false,false,false, |];

nPrecs = 68;
pred = [1,1,1,2,2,2,3,3,3,4,4,4,5,5,5,6,6,6,7,7,7,8,8,8,9,9,9,10,11,11,12,12,13,13,13,14,14,14,15,15,15,16,17,17,18,18,18,19,19,19,20,20,21,21,22,22,23,23,24,25,25,25,26,27,28,29,30,31];
succ = [2,3,4,5,6,7,10,14,15,5,7,8,17,12,13,18,11,13,9,28,14,25,14,22,12,21,31,11,17,16,24,16,19,22,16,21,23,24,25,20,22,30,19,20,25,19,21,28,29,23,27,23,26,29,27,24,26,31,29,26,27,31,30,28,30,32,32,32];

nUnrels = 196;
unpred = [2,2,2,2,2,3,3,3,3,3,3,3,3,3,4,4,4,4,4,5,5,5,5,5,5,5,5,5,5,5,6,6,6,6,6,6,6,7,7,7,7,7,7,7,7,7,7,7,7,8,8,8,8,8,8,8,8,8,8,8,9,9,9,9,9,9,9,9,9,9,9,9,9,9,10,10,10,10,10,10,10,10,10,11,11,11,11,11,11,11,11,11,12,12,12,12,12,12,12,12,12,12,12,12,12,12,12,13,13,13,13,13,13,13,14,14,14,14,14,14,14,14,14,14,15,15,15,15,15,16,16,16,16,16,16,16,16,16,16,16,16,16,16,17,17,17,17,17,18,18,18,19,19,19,19,19,19,20,20,20,20,20,21,21,21,21,21,21,21,22,22,22,22,23,23,23,23,23,24,24,24,24,24,24,25,26,26,26,26,27,27,28,28,29,29,30];
unsucc = [3,4,8,10,15,4,5,6,7,8,9,12,13,18,6,10,11,15,18,6,7,8,9,10,11,14,15,18,21,25,7,8,9,10,12,14,15,8,10,11,13,15,17,18,19,20,22,25,27,9,10,11,12,13,15,16,17,18,19,20,10,11,13,14,15,17,18,19,20,22,23,25,27,28,12,13,14,15,18,21,22,24,25,12,13,14,15,18,21,22,24,25,13,14,15,17,18,19,20,21,22,23,25,26,27,28,31,14,15,17,18,20,21,25,15,16,17,18,19,20,22,25,27,28,16,17,18,19,21,17,18,19,20,21,22,23,24,25,26,27,28,29,31,18,21,22,24,25,20,22,24,20,21,22,24,25,27,21,22,24,25,29,22,23,24,25,27,28,31,23,25,26,31,24,25,27,28,29,25,26,27,28,30,31,29,27,28,29,31,29,31,29,31,30,31,31];

USEFUL_RES = [{},
	{3,4},
	{1,2,3,4,5},
	{1,6},
	{1,2,3,5},
	{1,3,6},
	{4},
	{2,3,5,6},
	{4},
	{3,4},
	{1,2,3,5},
	{3,5},
	{2,3,5},
	{2,3,5},
	{3},
	{1,2,3,5},
	{1,4,5,6},
	{1,2,3,5},
	{3,6,7},
	{4,5},
	{4,5,6},
	{1,2,3,4,5},
	{1,2,3,5},
	{1,2,3,5},
	{2,3,4,5},
	{2,3,5,6},
	{2,3,5},
	{2,3,4,5},
	{1,6},
	{1,3,6},
	{1,6},
	{}];

POTENTIAL_ACT = [{3,4,5,6,11,16,17,18,22,23,24,29,30,31},
	{3,5,8,11,13,14,16,18,22,23,24,25,26,27,28},
	{2,3,5,6,8,10,11,12,13,14,15,16,18,19,22,23,24,25,26,27,28,30},
	{2,3,7,9,10,17,20,21,22,25,28},
	{3,5,8,11,12,13,14,16,17,18,20,21,22,23,24,25,26,27,28},
	{4,6,8,17,19,21,26,29,30,31},
	{19}];
